min: c;

c = 3.78142643465457 * u4_t1_h1 + 3.01583178362241 * u4_t1_h2 + 3.03868145449551 * u4_t1_h3 + 2.83388659415194 * u4_t1_h4 + 2.83388659415194 * u4_t10_h4 + 3.78669502342799 * u4_t1_h5 + 3.78669502342799 * u4_t10_h5 + 4.10825762654695 * u4_t1_h6 + 4.10825762654695 * u4_t10_h6 + 4.02906412699088 * u4_t1_h7 + 4.02906412699088 * u4_t10_h7 + 5.77380552009481 * u4_t1_h8 + 5.77380552009481 * u4_t9_h8 + 5.77380552009481 * u4_t10_h8 + 4.77899552064733 * u4_t9_h9 + 4.77899552064733 * u4_t10_h9 + 5.35831108741521 * u4_t9_h10 + 5.35831108741521 * u4_t10_h10 + 4.04064348070935 * u4_t2_h11 + 4.04064348070935 * u4_t4_h11 + 4.04064348070935 * u4_t9_h11 + 4.04064348070935 * u4_t10_h11 + 6.40107569855414 * u4_t2_h12 + 6.40107569855414 * u4_t3_h12 + 6.40107569855414 * u4_t4_h12 + 6.40107569855414 * u4_t8_h12 + 6.40107569855414 * u4_t9_h12 + 6.40107569855414 * u4_t10_h12 + 4.05515428870401 * u4_t2_h13 + 4.05515428870401 * u4_t3_h13 + 4.05515428870401 * u4_t4_h13 + 4.05515428870401 * u4_t8_h13 + 4.05515428870401 * u4_t9_h13 + 5.42523174130584 * u4_t2_h14 + 5.42523174130584 * u4_t3_h14 + 5.42523174130584 * u4_t4_h14 + 5.42523174130584 * u4_t8_h14 + 5.42523174130584 * u4_t9_h14 + 5.88957136110413 * u4_t2_h15 + 5.88957136110413 * u4_t3_h15 + 5.88957136110413 * u4_t4_h15 + 5.88957136110413 * u4_t8_h15 + 5.88957136110413 * u4_t9_h15 + 5.89286631222572 * u4_t2_h16 + 5.89286631222572 * u4_t3_h16 + 5.89286631222572 * u4_t4_h16 + 5.89286631222572 * u4_t5_h16 + 5.89286631222572 * u4_t8_h16 + 5.89286631222572 * u4_t9_h16 + 5.90087723282768 * u4_t2_h17 + 5.90087723282768 * u4_t3_h17 + 5.90087723282768 * u4_t5_h17 + 5.90087723282768 * u4_t8_h17 + 5.90087723282768 * u4_t9_h17 + 6.58618015741137 * u4_t2_h18 + 6.58618015741137 * u4_t3_h18 + 6.58618015741137 * u4_t5_h18 + 6.58618015741137 * u4_t8_h18 + 6.58618015741137 * u4_t9_h18 + 5.82673916352951 * u4_t2_h19 + 5.82673916352951 * u4_t3_h19 + 5.82673916352951 * u4_t6_h19 + 5.82673916352951 * u4_t8_h19 + 5.82673916352951 * u4_t9_h19 + 5.42485489027962 * u4_t2_h20 + 5.42485489027962 * u4_t6_h20 + 5.42485489027962 * u4_t9_h20 + 5.75288594312889 * u4_t6_h21 + 5.35163581119166 * u4_t6_h22 + 5.35163581119166 * u4_t7_h22 + 5.93089443298634 * u4_t6_h23 + 5.93089443298634 * u4_t7_h23;
0 <= u4_t1_h1 <= 1;
0 <= u4_t1_h2 <= 1;
0 <= u4_t1_h3 <= 1;
0 <= u4_t1_h4 <= 1;
0 <= u4_t1_h5 <= 1;
0 <= u4_t1_h6 <= 1;
0 <= u4_t1_h7 <= 1;
0 <= u4_t1_h8 <= 1;
u4_t1_h1 + u4_t1_h2 + u4_t1_h3 + u4_t1_h4 + u4_t1_h5 + u4_t1_h6 + u4_t1_h7 + u4_t1_h8 = 1;
0 <= u4_t2_h11 <= 1;
0 <= u4_t2_h12 <= 1;
0 <= u4_t2_h13 <= 1;
0 <= u4_t2_h14 <= 1;
0 <= u4_t2_h15 <= 1;
0 <= u4_t2_h16 <= 1;
0 <= u4_t2_h17 <= 1;
0 <= u4_t2_h18 <= 1;
0 <= u4_t2_h19 <= 1;
0 <= u4_t2_h20 <= 1;
u4_t2_h11 + u4_t2_h12 + u4_t2_h13 + u4_t2_h14 + u4_t2_h15 + u4_t2_h16 + u4_t2_h17 + u4_t2_h18 + u4_t2_h19 + u4_t2_h20 = 2;
0 <= u4_t3_h12 <= 1;
0 <= u4_t3_h13 <= 1;
0 <= u4_t3_h14 <= 1;
0 <= u4_t3_h15 <= 1;
0 <= u4_t3_h16 <= 1;
0 <= u4_t3_h17 <= 1;
0 <= u4_t3_h18 <= 1;
0 <= u4_t3_h19 <= 1;
u4_t3_h12 + u4_t3_h13 + u4_t3_h14 + u4_t3_h15 + u4_t3_h16 + u4_t3_h17 + u4_t3_h18 + u4_t3_h19 = 3;
0 <= u4_t4_h11 <= 1;
0 <= u4_t4_h12 <= 1;
0 <= u4_t4_h13 <= 1;
0 <= u4_t4_h14 <= 1;
0 <= u4_t4_h15 <= 1;
0 <= u4_t4_h16 <= 1;
u4_t4_h11 + u4_t4_h12 + u4_t4_h13 + u4_t4_h14 + u4_t4_h15 + u4_t4_h16 = 3;
0 <= u4_t5_h16 <= 1;
0 <= u4_t5_h17 <= 1;
0 <= u4_t5_h18 <= 1;
u4_t5_h16 + u4_t5_h17 + u4_t5_h18 = 1;
0 <= u4_t6_h19 <= 1;
0 <= u4_t6_h20 <= 1;
0 <= u4_t6_h21 <= 1;
0 <= u4_t6_h22 <= 1;
0 <= u4_t6_h23 <= 1;
u4_t6_h19 + u4_t6_h20 + u4_t6_h21 + u4_t6_h22 + u4_t6_h23 = 3;
0 <= u4_t7_h22 <= 1;
0 <= u4_t7_h23 <= 1;
u4_t7_h22 + u4_t7_h23 = 1;
0 <= u4_t8_h12 <= 1;
0 <= u4_t8_h13 <= 1;
0 <= u4_t8_h14 <= 1;
0 <= u4_t8_h15 <= 1;
0 <= u4_t8_h16 <= 1;
0 <= u4_t8_h17 <= 1;
0 <= u4_t8_h18 <= 1;
0 <= u4_t8_h19 <= 1;
u4_t8_h12 + u4_t8_h13 + u4_t8_h14 + u4_t8_h15 + u4_t8_h16 + u4_t8_h17 + u4_t8_h18 + u4_t8_h19 = 2;
0 <= u4_t9_h8 <= 1;
0 <= u4_t9_h9 <= 1;
0 <= u4_t9_h10 <= 1;
0 <= u4_t9_h11 <= 1;
0 <= u4_t9_h12 <= 1;
0 <= u4_t9_h13 <= 1;
0 <= u4_t9_h14 <= 1;
0 <= u4_t9_h15 <= 1;
0 <= u4_t9_h16 <= 1;
0 <= u4_t9_h17 <= 1;
0 <= u4_t9_h18 <= 1;
0 <= u4_t9_h19 <= 1;
0 <= u4_t9_h20 <= 1;
u4_t9_h8 + u4_t9_h9 + u4_t9_h10 + u4_t9_h11 + u4_t9_h12 + u4_t9_h13 + u4_t9_h14 + u4_t9_h15 + u4_t9_h16 + u4_t9_h17 + u4_t9_h18 + u4_t9_h19 + u4_t9_h20 = 2;
0 <= u4_t10_h4 <= 1;
0 <= u4_t10_h5 <= 1;
0 <= u4_t10_h6 <= 1;
0 <= u4_t10_h7 <= 1;
0 <= u4_t10_h8 <= 1;
0 <= u4_t10_h9 <= 1;
0 <= u4_t10_h10 <= 1;
0 <= u4_t10_h11 <= 1;
0 <= u4_t10_h12 <= 1;
u4_t10_h4 + u4_t10_h5 + u4_t10_h6 + u4_t10_h7 + u4_t10_h8 + u4_t10_h9 + u4_t10_h10 + u4_t10_h11 + u4_t10_h12 = 2;
